param n :=6;   


          
param d := 
          1  5
          2 8
          3 10
          4 11
          5 9
          6 7; # of demand for oil in each month
        


param p := 
          1  0.75 
          2 0.72
          3  0.9
          4 0.95
          5 0.92
          6 0.85; # price of purchasing oil in each month
          